;; sequence(s): A132766
;; terms: 0 25 52 81 112 145 180 217 256 297 340 385 432 481 532 585 640 697 756 817
;; small program: (x * x) + loop(x * y, 2 + 2, x)
;; fast program: ((2 * (2 * (2 + (2 + 2)))) + x) * x
(set-logic UFNIA)
(declare-fun f0 (Int Int) Int)
(declare-fun g0 () Int)
(declare-fun h0 (Int) Int)
(declare-fun u0 (Int Int) Int)
(declare-fun v0 (Int) Int)
(declare-fun small (Int) Int)
(declare-fun fast (Int) Int)
(assert (forall ((x Int) (y Int)) (= (f0 x y) (* x y))))
(assert (= g0 (+ 2 2)))
(assert (forall ((x Int)) (= (h0 x) x)))
(assert (forall ((x Int) (y Int)) (= (u0 x y) (ite (<= x 0) y (f0 (u0 (- x 1) y) x)))))
(assert (forall ((x Int)) (= (v0 x) (u0 g0 (h0 x)))))
(assert (forall ((x Int)) (= (small x) (+ (* x x) (v0 x)))))
(assert (forall ((x Int)) (= (fast x) (* (+ (* 2 (* 2 (+ 2 (+ 2 2)))) x) x))))
(assert (exists ((c Int)) (and (>= c 0) (not (= (small c) (fast c))))))
(check-sat)
